p edge         32        68
e         2         3
e         2         5
e         3         5
e         3         9
e         4         6
e         4         7
e         4        10
e         5         9
e         5        17
e         6         7
e         6        10
e         6        11
e         6        18
e         7        10
e         7        11
e         7        13
e         7        19
e         8        12
e         8        14
e         8        20
e         9        17
e        10        11
e        10        13
e        10        18
e        10        19
e        11        13
e        11        18
e        11        19
e        11        21
e        12        14
e        12        15
e        12        20
e        12        22
e        13        19
e        13        21
e        13        25
e        14        15
e        14        20
e        14        22
e        14        23
e        14        26
e        15        22
e        15        23
e        15        27
e        16        24
e        16        28
e        18        19
e        18        21
e        19        21
e        19        25
e        20        22
e        20        23
e        20        26
e        21        25
e        22        23
e        22        26
e        22        27
e        23        26
e        23        27
e        23        29
e        24        28
e        24        30
e        26        27
e        26        29
e        27        29
e        28        30
e        28        31
e        30        31

max indep set = { 17, 1, 18, 3, 20, 24, 7, 25, 29, 31, 15, 32}
